f:19632357
solution:
30 69 195 109 172 175 119 163 61 83 23 146 161 6 177 72 10 143 140 52 60 176 39 188 71 28 81 149 91 77 113 1 94 127 16 151 150 82 164 142 4 144 34 26 13 125 97 17 57 118 128 184 173 192 179 32 7 65 111 156 145 19 56 38 197 194 53 112 124 54 166 152 86 153 193 87 105 198 171 76 137 159 73 33 24 18 182 12 78 37 70 58 36 148 167 41 67 31 170 74 154 168 106 187 0 45 75 3 130 117 80 92 90 98 40 120 21 178 55 108 131 157 44 115 165 174 27 141 25 68 162 43 158 22 62 134 160 48 93 196 107 9 190 135 88 123 104 191 138 110 147 116 189 14 49 42 101 100 180 139 102 114 15 11 133 29 186 126 121 84 20 47 99 185 35 50 181 136 85 96 79 59 132 95 51 155 199 122 103 66 8 89 46 169 183 129 63 5 2 64 
